\ LP format - for model browsing. Use MPS format to capture full model detail.
Minimize
  - 113 Y_0_1_0 - 458 Y_0_2_0 - 202 Y_0_3_0 - 122 Y_0_4_0 - 208 Y_0_5_0
   - 212 Y_0_6_0 - 225 Y_0_7_0 - 292 Y_0_8_0 - 290 Y_0_9_0 - 377 Y_0_10_0
   - 522 Y_0_11_0 - 565 Y_0_12_0 - 733 Y_0_13_0 - 712 Y_0_14_0
   - 117 Y_1_2_0 - 265 Y_1_3_0 - 73 Y_1_4_0 - 17 Y_1_5_0 - 157 Y_1_6_0
   - 362 Y_1_7_0 - 233 Y_1_8_0 - 145 Y_1_9_0 - 242 Y_1_10_0 - 425 Y_1_11_0
   - 226 Y_1_12_0 - 386 Y_1_13_0 - 493 Y_1_14_0 - 520 Y_2_3_0 - 232 Y_2_4_0
   - 50 Y_2_5_0 - 298 Y_2_6_0 - 689 Y_2_7_0 - 362 Y_2_8_0 - 196 Y_2_9_0
   - 293 Y_2_10_0 - 500 Y_2_11_0 - 85 Y_2_12_0 - 221 Y_2_13_0
   - 442 Y_2_14_0 - 64 Y_3_4_0 - 290 Y_3_5_0 - 34 Y_3_6_0 - 13 Y_3_7_0
   - 34 Y_3_8_0 - 100 Y_3_9_0 - 89 Y_3_10_0 - 100 Y_3_11_0 - 369 Y_3_12_0
   - 377 Y_3_13_0 - 234 Y_3_14_0 - 82 Y_4_5_0 - 18 Y_4_6_0 - 125 Y_4_7_0
   - 50 Y_4_8_0 - 36 Y_4_9_0 - 73 Y_4_10_0 - 164 Y_4_11_0 - 193 Y_4_12_0
   - 265 Y_4_13_0 - 250 Y_4_14_0 - 148 Y_5_6_0 - 409 Y_5_7_0 - 212 Y_5_8_0
   - 106 Y_5_9_0 - 193 Y_5_10_0 - 370 Y_5_11_0 - 125 Y_5_12_0
   - 261 Y_5_13_0 - 392 Y_5_14_0 - 89 Y_6_7_0 - 8 Y_6_8_0 - 18 Y_6_9_0
   - 25 Y_6_10_0 - 74 Y_6_11_0 - 181 Y_6_12_0 - 205 Y_6_13_0 - 148 Y_6_14_0
   - 85 Y_7_8_0 - 185 Y_7_9_0 - 164 Y_7_10_0 - 153 Y_7_11_0 - 520 Y_7_12_0
   - 520 Y_7_13_0 - 325 Y_7_14_0 - 26 Y_8_9_0 - 13 Y_8_10_0 - 34 Y_8_11_0
   - 193 Y_8_12_0 - 185 Y_8_13_0 - 100 Y_8_14_0 - 13 Y_9_10_0 - 80 Y_9_11_0
   - 85 Y_9_12_0 - 109 Y_9_13_0 - 106 Y_9_14_0 - 29 Y_10_11_0
   - 116 Y_10_12_0 - 100 Y_10_13_0 - 53 Y_10_14_0 - 229 Y_11_12_0
   - 157 Y_11_13_0 - 34 Y_11_14_0 - 32 Y_12_13_0 - 153 Y_12_14_0
   - 65 Y_13_14_0 - 113 Y_0_1_1 - 458 Y_0_2_1 - 202 Y_0_3_1 - 122 Y_0_4_1
   - 208 Y_0_5_1 - 212 Y_0_6_1 - 225 Y_0_7_1 - 292 Y_0_8_1 - 290 Y_0_9_1
   - 377 Y_0_10_1 - 522 Y_0_11_1 - 565 Y_0_12_1 - 733 Y_0_13_1
   - 712 Y_0_14_1 - 117 Y_1_2_1 - 265 Y_1_3_1 - 73 Y_1_4_1 - 17 Y_1_5_1
   - 157 Y_1_6_1 - 362 Y_1_7_1 - 233 Y_1_8_1 - 145 Y_1_9_1 - 242 Y_1_10_1
   - 425 Y_1_11_1 - 226 Y_1_12_1 - 386 Y_1_13_1 - 493 Y_1_14_1
   - 520 Y_2_3_1 - 232 Y_2_4_1 - 50 Y_2_5_1 - 298 Y_2_6_1 - 689 Y_2_7_1
   - 362 Y_2_8_1 - 196 Y_2_9_1 - 293 Y_2_10_1 - 500 Y_2_11_1 - 85 Y_2_12_1
   - 221 Y_2_13_1 - 442 Y_2_14_1 - 64 Y_3_4_1 - 290 Y_3_5_1 - 34 Y_3_6_1
   - 13 Y_3_7_1 - 34 Y_3_8_1 - 100 Y_3_9_1 - 89 Y_3_10_1 - 100 Y_3_11_1
   - 369 Y_3_12_1 - 377 Y_3_13_1 - 234 Y_3_14_1 - 82 Y_4_5_1 - 18 Y_4_6_1
   - 125 Y_4_7_1 - 50 Y_4_8_1 - 36 Y_4_9_1 - 73 Y_4_10_1 - 164 Y_4_11_1
   - 193 Y_4_12_1 - 265 Y_4_13_1 - 250 Y_4_14_1 - 148 Y_5_6_1 - 409 Y_5_7_1
   - 212 Y_5_8_1 - 106 Y_5_9_1 - 193 Y_5_10_1 - 370 Y_5_11_1 - 125 Y_5_12_1
   - 261 Y_5_13_1 - 392 Y_5_14_1 - 89 Y_6_7_1 - 8 Y_6_8_1 - 18 Y_6_9_1
   - 25 Y_6_10_1 - 74 Y_6_11_1 - 181 Y_6_12_1 - 205 Y_6_13_1 - 148 Y_6_14_1
   - 85 Y_7_8_1 - 185 Y_7_9_1 - 164 Y_7_10_1 - 153 Y_7_11_1 - 520 Y_7_12_1
   - 520 Y_7_13_1 - 325 Y_7_14_1 - 26 Y_8_9_1 - 13 Y_8_10_1 - 34 Y_8_11_1
   - 193 Y_8_12_1 - 185 Y_8_13_1 - 100 Y_8_14_1 - 13 Y_9_10_1 - 80 Y_9_11_1
   - 85 Y_9_12_1 - 109 Y_9_13_1 - 106 Y_9_14_1 - 29 Y_10_11_1
   - 116 Y_10_12_1 - 100 Y_10_13_1 - 53 Y_10_14_1 - 229 Y_11_12_1
   - 157 Y_11_13_1 - 34 Y_11_14_1 - 32 Y_12_13_1 - 153 Y_12_14_1
   - 65 Y_13_14_1 + 0 Z
Subject To
 X0: X_0 + X_0 = 1
 X1: X_1 + X_1 = 1
 X2: X_2 + X_2 = 1
 X3: X_3 + X_3 = 1
 X4: X_4 + X_4 = 1
 X5: X_5 + X_5 = 1
 X6: X_6 + X_6 = 1
 X7: X_7 + X_7 = 1
 X8: X_8 + X_8 = 1
 X9: X_9 + X_9 = 1
 X10: X_10 + X_10 = 1
 X11: X_11 + X_11 = 1
 X12: X_12 + X_12 = 1
 X13: X_13 + X_13 = 1
 X14: X_14 + X_14 = 1
 P0: X_0 + X_1 + X_2 + X_3 + X_4 + X_5 + X_6 + X_7 + X_8 + X_9 + X_10
   + X_11 + X_12 + X_13 + X_14 >= 7
 P1: X_0 + X_1 + X_2 + X_3 + X_4 + X_5 + X_6 + X_7 + X_8 + X_9 + X_10
   + X_11 + X_12 + X_13 + X_14 >= 7
 YS0X0P0: - X_0 + Y_0_1_0 <= 0
 YS0X1P0: - X_1 + Y_0_1_0 <= 0
 Y0_1: - X_0 - X_1 + Y_0_1_0 >= -1
 YS1X0P0: - X_0 + Y_0_2_0 <= 0
 YS1X2P0: - X_2 + Y_0_2_0 <= 0
 Y0_2: - X_0 - X_2 + Y_0_2_0 >= -1
 YS2X0P0: - X_0 + Y_0_3_0 <= 0
 YS2X3P0: - X_3 + Y_0_3_0 <= 0
 Y0_3: - X_0 - X_3 + Y_0_3_0 >= -1
 YS3X0P0: - X_0 + Y_0_4_0 <= 0
 YS3X4P0: - X_4 + Y_0_4_0 <= 0
 Y0_4: - X_0 - X_4 + Y_0_4_0 >= -1
 YS4X0P0: - X_0 + Y_0_5_0 <= 0
 YS4X5P0: - X_5 + Y_0_5_0 <= 0
 Y0_5: - X_0 - X_5 + Y_0_5_0 >= -1
 YS5X0P0: - X_0 + Y_0_6_0 <= 0
 YS5X6P0: - X_6 + Y_0_6_0 <= 0
 Y0_6: - X_0 - X_6 + Y_0_6_0 >= -1
 YS6X0P0: - X_0 + Y_0_7_0 <= 0
 YS6X7P0: - X_7 + Y_0_7_0 <= 0
 Y0_7: - X_0 - X_7 + Y_0_7_0 >= -1
 YS7X0P0: - X_0 + Y_0_8_0 <= 0
 YS7X8P0: - X_8 + Y_0_8_0 <= 0
 Y0_8: - X_0 - X_8 + Y_0_8_0 >= -1
 YS8X0P0: - X_0 + Y_0_9_0 <= 0
 YS8X9P0: - X_9 + Y_0_9_0 <= 0
 Y0_9: - X_0 - X_9 + Y_0_9_0 >= -1
 YS9X0P0: - X_0 + Y_0_10_0 <= 0
 YS9X10P0: - X_10 + Y_0_10_0 <= 0
 Y0_10: - X_0 - X_10 + Y_0_10_0 >= -1
 YS10X0P0: - X_0 + Y_0_11_0 <= 0
 YS10X11P0: - X_11 + Y_0_11_0 <= 0
 Y0_11: - X_0 - X_11 + Y_0_11_0 >= -1
 YS11X0P0: - X_0 + Y_0_12_0 <= 0
 YS11X12P0: - X_12 + Y_0_12_0 <= 0
 Y0_12: - X_0 - X_12 + Y_0_12_0 >= -1
 YS12X0P0: - X_0 + Y_0_13_0 <= 0
 YS12X13P0: - X_13 + Y_0_13_0 <= 0
 Y0_13: - X_0 - X_13 + Y_0_13_0 >= -1
 YS13X0P0: - X_0 + Y_0_14_0 <= 0
 YS13X14P0: - X_14 + Y_0_14_0 <= 0
 Y0_14: - X_0 - X_14 + Y_0_14_0 >= -1
 YS14X1P0: - X_1 + Y_1_2_0 <= 0
 YS14X2P0: - X_2 + Y_1_2_0 <= 0
 Y1_2: - X_1 - X_2 + Y_1_2_0 >= -1
 YS15X1P0: - X_1 + Y_1_3_0 <= 0
 YS15X3P0: - X_3 + Y_1_3_0 <= 0
 Y1_3: - X_1 - X_3 + Y_1_3_0 >= -1
 YS16X1P0: - X_1 + Y_1_4_0 <= 0
 YS16X4P0: - X_4 + Y_1_4_0 <= 0
 Y1_4: - X_1 - X_4 + Y_1_4_0 >= -1
 YS17X1P0: - X_1 + Y_1_5_0 <= 0
 YS17X5P0: - X_5 + Y_1_5_0 <= 0
 Y1_5: - X_1 - X_5 + Y_1_5_0 >= -1
 YS18X1P0: - X_1 + Y_1_6_0 <= 0
 YS18X6P0: - X_6 + Y_1_6_0 <= 0
 Y1_6: - X_1 - X_6 + Y_1_6_0 >= -1
 YS19X1P0: - X_1 + Y_1_7_0 <= 0
 YS19X7P0: - X_7 + Y_1_7_0 <= 0
 Y1_7: - X_1 - X_7 + Y_1_7_0 >= -1
 YS20X1P0: - X_1 + Y_1_8_0 <= 0
 YS20X8P0: - X_8 + Y_1_8_0 <= 0
 Y1_8: - X_1 - X_8 + Y_1_8_0 >= -1
 YS21X1P0: - X_1 + Y_1_9_0 <= 0
 YS21X9P0: - X_9 + Y_1_9_0 <= 0
 Y1_9: - X_1 - X_9 + Y_1_9_0 >= -1
 YS22X1P0: - X_1 + Y_1_10_0 <= 0
 YS22X10P0: - X_10 + Y_1_10_0 <= 0
 Y1_10: - X_1 - X_10 + Y_1_10_0 >= -1
 YS23X1P0: - X_1 + Y_1_11_0 <= 0
 YS23X11P0: - X_11 + Y_1_11_0 <= 0
 Y1_11: - X_1 - X_11 + Y_1_11_0 >= -1
 YS24X1P0: - X_1 + Y_1_12_0 <= 0
 YS24X12P0: - X_12 + Y_1_12_0 <= 0
 Y1_12: - X_1 - X_12 + Y_1_12_0 >= -1
 YS25X1P0: - X_1 + Y_1_13_0 <= 0
 YS25X13P0: - X_13 + Y_1_13_0 <= 0
 Y1_13: - X_1 - X_13 + Y_1_13_0 >= -1
 YS26X1P0: - X_1 + Y_1_14_0 <= 0
 YS26X14P0: - X_14 + Y_1_14_0 <= 0
 Y1_14: - X_1 - X_14 + Y_1_14_0 >= -1
 YS27X2P0: - X_2 + Y_2_3_0 <= 0
 YS27X3P0: - X_3 + Y_2_3_0 <= 0
 Y2_3: - X_2 - X_3 + Y_2_3_0 >= -1
 YS28X2P0: - X_2 + Y_2_4_0 <= 0
 YS28X4P0: - X_4 + Y_2_4_0 <= 0
 Y2_4: - X_2 - X_4 + Y_2_4_0 >= -1
 YS29X2P0: - X_2 + Y_2_5_0 <= 0
 YS29X5P0: - X_5 + Y_2_5_0 <= 0
 Y2_5: - X_2 - X_5 + Y_2_5_0 >= -1
 YS30X2P0: - X_2 + Y_2_6_0 <= 0
 YS30X6P0: - X_6 + Y_2_6_0 <= 0
 Y2_6: - X_2 - X_6 + Y_2_6_0 >= -1
 YS31X2P0: - X_2 + Y_2_7_0 <= 0
 YS31X7P0: - X_7 + Y_2_7_0 <= 0
 Y2_7: - X_2 - X_7 + Y_2_7_0 >= -1
 YS32X2P0: - X_2 + Y_2_8_0 <= 0
 YS32X8P0: - X_8 + Y_2_8_0 <= 0
 Y2_8: - X_2 - X_8 + Y_2_8_0 >= -1
 YS33X2P0: - X_2 + Y_2_9_0 <= 0
 YS33X9P0: - X_9 + Y_2_9_0 <= 0
 Y2_9: - X_2 - X_9 + Y_2_9_0 >= -1
 YS34X2P0: - X_2 + Y_2_10_0 <= 0
 YS34X10P0: - X_10 + Y_2_10_0 <= 0
 Y2_10: - X_2 - X_10 + Y_2_10_0 >= -1
 YS35X2P0: - X_2 + Y_2_11_0 <= 0
 YS35X11P0: - X_11 + Y_2_11_0 <= 0
 Y2_11: - X_2 - X_11 + Y_2_11_0 >= -1
 YS36X2P0: - X_2 + Y_2_12_0 <= 0
 YS36X12P0: - X_12 + Y_2_12_0 <= 0
 Y2_12: - X_2 - X_12 + Y_2_12_0 >= -1
 YS37X2P0: - X_2 + Y_2_13_0 <= 0
 YS37X13P0: - X_13 + Y_2_13_0 <= 0
 Y2_13: - X_2 - X_13 + Y_2_13_0 >= -1
 YS38X2P0: - X_2 + Y_2_14_0 <= 0
 YS38X14P0: - X_14 + Y_2_14_0 <= 0
 Y2_14: - X_2 - X_14 + Y_2_14_0 >= -1
 YS39X3P0: - X_3 + Y_3_4_0 <= 0
 YS39X4P0: - X_4 + Y_3_4_0 <= 0
 Y3_4: - X_3 - X_4 + Y_3_4_0 >= -1
 YS40X3P0: - X_3 + Y_3_5_0 <= 0
 YS40X5P0: - X_5 + Y_3_5_0 <= 0
 Y3_5: - X_3 - X_5 + Y_3_5_0 >= -1
 YS41X3P0: - X_3 + Y_3_6_0 <= 0
 YS41X6P0: - X_6 + Y_3_6_0 <= 0
 Y3_6: - X_3 - X_6 + Y_3_6_0 >= -1
 YS42X3P0: - X_3 + Y_3_7_0 <= 0
 YS42X7P0: - X_7 + Y_3_7_0 <= 0
 Y3_7: - X_3 - X_7 + Y_3_7_0 >= -1
 YS43X3P0: - X_3 + Y_3_8_0 <= 0
 YS43X8P0: - X_8 + Y_3_8_0 <= 0
 Y3_8: - X_3 - X_8 + Y_3_8_0 >= -1
 YS44X3P0: - X_3 + Y_3_9_0 <= 0
 YS44X9P0: - X_9 + Y_3_9_0 <= 0
 Y3_9: - X_3 - X_9 + Y_3_9_0 >= -1
 YS45X3P0: - X_3 + Y_3_10_0 <= 0
 YS45X10P0: - X_10 + Y_3_10_0 <= 0
 Y3_10: - X_3 - X_10 + Y_3_10_0 >= -1
 YS46X3P0: - X_3 + Y_3_11_0 <= 0
 YS46X11P0: - X_11 + Y_3_11_0 <= 0
 Y3_11: - X_3 - X_11 + Y_3_11_0 >= -1
 YS47X3P0: - X_3 + Y_3_12_0 <= 0
 YS47X12P0: - X_12 + Y_3_12_0 <= 0
 Y3_12: - X_3 - X_12 + Y_3_12_0 >= -1
 YS48X3P0: - X_3 + Y_3_13_0 <= 0
 YS48X13P0: - X_13 + Y_3_13_0 <= 0
 Y3_13: - X_3 - X_13 + Y_3_13_0 >= -1
 YS49X3P0: - X_3 + Y_3_14_0 <= 0
 YS49X14P0: - X_14 + Y_3_14_0 <= 0
 Y3_14: - X_3 - X_14 + Y_3_14_0 >= -1
 YS50X4P0: - X_4 + Y_4_5_0 <= 0
 YS50X5P0: - X_5 + Y_4_5_0 <= 0
 Y4_5: - X_4 - X_5 + Y_4_5_0 >= -1
 YS51X4P0: - X_4 + Y_4_6_0 <= 0
 YS51X6P0: - X_6 + Y_4_6_0 <= 0
 Y4_6: - X_4 - X_6 + Y_4_6_0 >= -1
 YS52X4P0: - X_4 + Y_4_7_0 <= 0
 YS52X7P0: - X_7 + Y_4_7_0 <= 0
 Y4_7: - X_4 - X_7 + Y_4_7_0 >= -1
 YS53X4P0: - X_4 + Y_4_8_0 <= 0
 YS53X8P0: - X_8 + Y_4_8_0 <= 0
 Y4_8: - X_4 - X_8 + Y_4_8_0 >= -1
 YS54X4P0: - X_4 + Y_4_9_0 <= 0
 YS54X9P0: - X_9 + Y_4_9_0 <= 0
 Y4_9: - X_4 - X_9 + Y_4_9_0 >= -1
 YS55X4P0: - X_4 + Y_4_10_0 <= 0
 YS55X10P0: - X_10 + Y_4_10_0 <= 0
 Y4_10: - X_4 - X_10 + Y_4_10_0 >= -1
 YS56X4P0: - X_4 + Y_4_11_0 <= 0
 YS56X11P0: - X_11 + Y_4_11_0 <= 0
 Y4_11: - X_4 - X_11 + Y_4_11_0 >= -1
 YS57X4P0: - X_4 + Y_4_12_0 <= 0
 YS57X12P0: - X_12 + Y_4_12_0 <= 0
 Y4_12: - X_4 - X_12 + Y_4_12_0 >= -1
 YS58X4P0: - X_4 + Y_4_13_0 <= 0
 YS58X13P0: - X_13 + Y_4_13_0 <= 0
 Y4_13: - X_4 - X_13 + Y_4_13_0 >= -1
 YS59X4P0: - X_4 + Y_4_14_0 <= 0
 YS59X14P0: - X_14 + Y_4_14_0 <= 0
 Y4_14: - X_4 - X_14 + Y_4_14_0 >= -1
 YS60X5P0: - X_5 + Y_5_6_0 <= 0
 YS60X6P0: - X_6 + Y_5_6_0 <= 0
 Y5_6: - X_5 - X_6 + Y_5_6_0 >= -1
 YS61X5P0: - X_5 + Y_5_7_0 <= 0
 YS61X7P0: - X_7 + Y_5_7_0 <= 0
 Y5_7: - X_5 - X_7 + Y_5_7_0 >= -1
 YS62X5P0: - X_5 + Y_5_8_0 <= 0
 YS62X8P0: - X_8 + Y_5_8_0 <= 0
 Y5_8: - X_5 - X_8 + Y_5_8_0 >= -1
 YS63X5P0: - X_5 + Y_5_9_0 <= 0
 YS63X9P0: - X_9 + Y_5_9_0 <= 0
 Y5_9: - X_5 - X_9 + Y_5_9_0 >= -1
 YS64X5P0: - X_5 + Y_5_10_0 <= 0
 YS64X10P0: - X_10 + Y_5_10_0 <= 0
 Y5_10: - X_5 - X_10 + Y_5_10_0 >= -1
 YS65X5P0: - X_5 + Y_5_11_0 <= 0
 YS65X11P0: - X_11 + Y_5_11_0 <= 0
 Y5_11: - X_5 - X_11 + Y_5_11_0 >= -1
 YS66X5P0: - X_5 + Y_5_12_0 <= 0
 YS66X12P0: - X_12 + Y_5_12_0 <= 0
 Y5_12: - X_5 - X_12 + Y_5_12_0 >= -1
 YS67X5P0: - X_5 + Y_5_13_0 <= 0
 YS67X13P0: - X_13 + Y_5_13_0 <= 0
 Y5_13: - X_5 - X_13 + Y_5_13_0 >= -1
 YS68X5P0: - X_5 + Y_5_14_0 <= 0
 YS68X14P0: - X_14 + Y_5_14_0 <= 0
 Y5_14: - X_5 - X_14 + Y_5_14_0 >= -1
 YS69X6P0: - X_6 + Y_6_7_0 <= 0
 YS69X7P0: - X_7 + Y_6_7_0 <= 0
 Y6_7: - X_6 - X_7 + Y_6_7_0 >= -1
 YS70X6P0: - X_6 + Y_6_8_0 <= 0
 YS70X8P0: - X_8 + Y_6_8_0 <= 0
 Y6_8: - X_6 - X_8 + Y_6_8_0 >= -1
 YS71X6P0: - X_6 + Y_6_9_0 <= 0
 YS71X9P0: - X_9 + Y_6_9_0 <= 0
 Y6_9: - X_6 - X_9 + Y_6_9_0 >= -1
 YS72X6P0: - X_6 + Y_6_10_0 <= 0
 YS72X10P0: - X_10 + Y_6_10_0 <= 0
 Y6_10: - X_6 - X_10 + Y_6_10_0 >= -1
 YS73X6P0: - X_6 + Y_6_11_0 <= 0
 YS73X11P0: - X_11 + Y_6_11_0 <= 0
 Y6_11: - X_6 - X_11 + Y_6_11_0 >= -1
 YS74X6P0: - X_6 + Y_6_12_0 <= 0
 YS74X12P0: - X_12 + Y_6_12_0 <= 0
 Y6_12: - X_6 - X_12 + Y_6_12_0 >= -1
 YS75X6P0: - X_6 + Y_6_13_0 <= 0
 YS75X13P0: - X_13 + Y_6_13_0 <= 0
 Y6_13: - X_6 - X_13 + Y_6_13_0 >= -1
 YS76X6P0: - X_6 + Y_6_14_0 <= 0
 YS76X14P0: - X_14 + Y_6_14_0 <= 0
 Y6_14: - X_6 - X_14 + Y_6_14_0 >= -1
 YS77X7P0: - X_7 + Y_7_8_0 <= 0
 YS77X8P0: - X_8 + Y_7_8_0 <= 0
 Y7_8: - X_7 - X_8 + Y_7_8_0 >= -1
 YS78X7P0: - X_7 + Y_7_9_0 <= 0
 YS78X9P0: - X_9 + Y_7_9_0 <= 0
 Y7_9: - X_7 - X_9 + Y_7_9_0 >= -1
 YS79X7P0: - X_7 + Y_7_10_0 <= 0
 YS79X10P0: - X_10 + Y_7_10_0 <= 0
 Y7_10: - X_7 - X_10 + Y_7_10_0 >= -1
 YS80X7P0: - X_7 + Y_7_11_0 <= 0
 YS80X11P0: - X_11 + Y_7_11_0 <= 0
 Y7_11: - X_7 - X_11 + Y_7_11_0 >= -1
 YS81X7P0: - X_7 + Y_7_12_0 <= 0
 YS81X12P0: - X_12 + Y_7_12_0 <= 0
 Y7_12: - X_7 - X_12 + Y_7_12_0 >= -1
 YS82X7P0: - X_7 + Y_7_13_0 <= 0
 YS82X13P0: - X_13 + Y_7_13_0 <= 0
 Y7_13: - X_7 - X_13 + Y_7_13_0 >= -1
 YS83X7P0: - X_7 + Y_7_14_0 <= 0
 YS83X14P0: - X_14 + Y_7_14_0 <= 0
 Y7_14: - X_7 - X_14 + Y_7_14_0 >= -1
 YS84X8P0: - X_8 + Y_8_9_0 <= 0
 YS84X9P0: - X_9 + Y_8_9_0 <= 0
 Y8_9: - X_8 - X_9 + Y_8_9_0 >= -1
 YS85X8P0: - X_8 + Y_8_10_0 <= 0
 YS85X10P0: - X_10 + Y_8_10_0 <= 0
 Y8_10: - X_8 - X_10 + Y_8_10_0 >= -1
 YS86X8P0: - X_8 + Y_8_11_0 <= 0
 YS86X11P0: - X_11 + Y_8_11_0 <= 0
 Y8_11: - X_8 - X_11 + Y_8_11_0 >= -1
 YS87X8P0: - X_8 + Y_8_12_0 <= 0
 YS87X12P0: - X_12 + Y_8_12_0 <= 0
 Y8_12: - X_8 - X_12 + Y_8_12_0 >= -1
 YS88X8P0: - X_8 + Y_8_13_0 <= 0
 YS88X13P0: - X_13 + Y_8_13_0 <= 0
 Y8_13: - X_8 - X_13 + Y_8_13_0 >= -1
 YS89X8P0: - X_8 + Y_8_14_0 <= 0
 YS89X14P0: - X_14 + Y_8_14_0 <= 0
 Y8_14: - X_8 - X_14 + Y_8_14_0 >= -1
 YS90X9P0: - X_9 + Y_9_10_0 <= 0
 YS90X10P0: - X_10 + Y_9_10_0 <= 0
 Y9_10: - X_9 - X_10 + Y_9_10_0 >= -1
 YS91X9P0: - X_9 + Y_9_11_0 <= 0
 YS91X11P0: - X_11 + Y_9_11_0 <= 0
 Y9_11: - X_9 - X_11 + Y_9_11_0 >= -1
 YS92X9P0: - X_9 + Y_9_12_0 <= 0
 YS92X12P0: - X_12 + Y_9_12_0 <= 0
 Y9_12: - X_9 - X_12 + Y_9_12_0 >= -1
 YS93X9P0: - X_9 + Y_9_13_0 <= 0
 YS93X13P0: - X_13 + Y_9_13_0 <= 0
 Y9_13: - X_9 - X_13 + Y_9_13_0 >= -1
 YS94X9P0: - X_9 + Y_9_14_0 <= 0
 YS94X14P0: - X_14 + Y_9_14_0 <= 0
 Y9_14: - X_9 - X_14 + Y_9_14_0 >= -1
 YS95X10P0: - X_10 + Y_10_11_0 <= 0
 YS95X11P0: - X_11 + Y_10_11_0 <= 0
 Y10_11: - X_10 - X_11 + Y_10_11_0 >= -1
 YS96X10P0: - X_10 + Y_10_12_0 <= 0
 YS96X12P0: - X_12 + Y_10_12_0 <= 0
 Y10_12: - X_10 - X_12 + Y_10_12_0 >= -1
 YS97X10P0: - X_10 + Y_10_13_0 <= 0
 YS97X13P0: - X_13 + Y_10_13_0 <= 0
 Y10_13: - X_10 - X_13 + Y_10_13_0 >= -1
 YS98X10P0: - X_10 + Y_10_14_0 <= 0
 YS98X14P0: - X_14 + Y_10_14_0 <= 0
 Y10_14: - X_10 - X_14 + Y_10_14_0 >= -1
 YS99X11P0: - X_11 + Y_11_12_0 <= 0
 YS99X12P0: - X_12 + Y_11_12_0 <= 0
 Y11_12: - X_11 - X_12 + Y_11_12_0 >= -1
 YS100X11P0: - X_11 + Y_11_13_0 <= 0
 YS100X13P0: - X_13 + Y_11_13_0 <= 0
 Y11_13: - X_11 - X_13 + Y_11_13_0 >= -1
 YS101X11P0: - X_11 + Y_11_14_0 <= 0
 YS101X14P0: - X_14 + Y_11_14_0 <= 0
 Y11_14: - X_11 - X_14 + Y_11_14_0 >= -1
 YS102X12P0: - X_12 + Y_12_13_0 <= 0
 YS102X13P0: - X_13 + Y_12_13_0 <= 0
 Y12_13: - X_12 - X_13 + Y_12_13_0 >= -1
 YS103X12P0: - X_12 + Y_12_14_0 <= 0
 YS103X14P0: - X_14 + Y_12_14_0 <= 0
 Y12_14: - X_12 - X_14 + Y_12_14_0 >= -1
 YS104X13P0: - X_13 + Y_13_14_0 <= 0
 YS104X14P0: - X_14 + Y_13_14_0 <= 0
 Y13_14: - X_13 - X_14 + Y_13_14_0 >= -1
 YS0X0P1: - X_0 + Y_0_1_1 <= 0
 YS0X1P1: - X_1 + Y_0_1_1 <= 0
 Y0_1: - X_0 - X_1 + Y_0_1_1 >= -1
 YS1X0P1: - X_0 + Y_0_2_1 <= 0
 YS1X2P1: - X_2 + Y_0_2_1 <= 0
 Y0_2: - X_0 - X_2 + Y_0_2_1 >= -1
 YS2X0P1: - X_0 + Y_0_3_1 <= 0
 YS2X3P1: - X_3 + Y_0_3_1 <= 0
 Y0_3: - X_0 - X_3 + Y_0_3_1 >= -1
 YS3X0P1: - X_0 + Y_0_4_1 <= 0
 YS3X4P1: - X_4 + Y_0_4_1 <= 0
 Y0_4: - X_0 - X_4 + Y_0_4_1 >= -1
 YS4X0P1: - X_0 + Y_0_5_1 <= 0
 YS4X5P1: - X_5 + Y_0_5_1 <= 0
 Y0_5: - X_0 - X_5 + Y_0_5_1 >= -1
 YS5X0P1: - X_0 + Y_0_6_1 <= 0
 YS5X6P1: - X_6 + Y_0_6_1 <= 0
 Y0_6: - X_0 - X_6 + Y_0_6_1 >= -1
 YS6X0P1: - X_0 + Y_0_7_1 <= 0
 YS6X7P1: - X_7 + Y_0_7_1 <= 0
 Y0_7: - X_0 - X_7 + Y_0_7_1 >= -1
 YS7X0P1: - X_0 + Y_0_8_1 <= 0
 YS7X8P1: - X_8 + Y_0_8_1 <= 0
 Y0_8: - X_0 - X_8 + Y_0_8_1 >= -1
 YS8X0P1: - X_0 + Y_0_9_1 <= 0
 YS8X9P1: - X_9 + Y_0_9_1 <= 0
 Y0_9: - X_0 - X_9 + Y_0_9_1 >= -1
 YS9X0P1: - X_0 + Y_0_10_1 <= 0
 YS9X10P1: - X_10 + Y_0_10_1 <= 0
 Y0_10: - X_0 - X_10 + Y_0_10_1 >= -1
 YS10X0P1: - X_0 + Y_0_11_1 <= 0
 YS10X11P1: - X_11 + Y_0_11_1 <= 0
 Y0_11: - X_0 - X_11 + Y_0_11_1 >= -1
 YS11X0P1: - X_0 + Y_0_12_1 <= 0
 YS11X12P1: - X_12 + Y_0_12_1 <= 0
 Y0_12: - X_0 - X_12 + Y_0_12_1 >= -1
 YS12X0P1: - X_0 + Y_0_13_1 <= 0
 YS12X13P1: - X_13 + Y_0_13_1 <= 0
 Y0_13: - X_0 - X_13 + Y_0_13_1 >= -1
 YS13X0P1: - X_0 + Y_0_14_1 <= 0
 YS13X14P1: - X_14 + Y_0_14_1 <= 0
 Y0_14: - X_0 - X_14 + Y_0_14_1 >= -1
 YS14X1P1: - X_1 + Y_1_2_1 <= 0
 YS14X2P1: - X_2 + Y_1_2_1 <= 0
 Y1_2: - X_1 - X_2 + Y_1_2_1 >= -1
 YS15X1P1: - X_1 + Y_1_3_1 <= 0
 YS15X3P1: - X_3 + Y_1_3_1 <= 0
 Y1_3: - X_1 - X_3 + Y_1_3_1 >= -1
 YS16X1P1: - X_1 + Y_1_4_1 <= 0
 YS16X4P1: - X_4 + Y_1_4_1 <= 0
 Y1_4: - X_1 - X_4 + Y_1_4_1 >= -1
 YS17X1P1: - X_1 + Y_1_5_1 <= 0
 YS17X5P1: - X_5 + Y_1_5_1 <= 0
 Y1_5: - X_1 - X_5 + Y_1_5_1 >= -1
 YS18X1P1: - X_1 + Y_1_6_1 <= 0
 YS18X6P1: - X_6 + Y_1_6_1 <= 0
 Y1_6: - X_1 - X_6 + Y_1_6_1 >= -1
 YS19X1P1: - X_1 + Y_1_7_1 <= 0
 YS19X7P1: - X_7 + Y_1_7_1 <= 0
 Y1_7: - X_1 - X_7 + Y_1_7_1 >= -1
 YS20X1P1: - X_1 + Y_1_8_1 <= 0
 YS20X8P1: - X_8 + Y_1_8_1 <= 0
 Y1_8: - X_1 - X_8 + Y_1_8_1 >= -1
 YS21X1P1: - X_1 + Y_1_9_1 <= 0
 YS21X9P1: - X_9 + Y_1_9_1 <= 0
 Y1_9: - X_1 - X_9 + Y_1_9_1 >= -1
 YS22X1P1: - X_1 + Y_1_10_1 <= 0
 YS22X10P1: - X_10 + Y_1_10_1 <= 0
 Y1_10: - X_1 - X_10 + Y_1_10_1 >= -1
 YS23X1P1: - X_1 + Y_1_11_1 <= 0
 YS23X11P1: - X_11 + Y_1_11_1 <= 0
 Y1_11: - X_1 - X_11 + Y_1_11_1 >= -1
 YS24X1P1: - X_1 + Y_1_12_1 <= 0
 YS24X12P1: - X_12 + Y_1_12_1 <= 0
 Y1_12: - X_1 - X_12 + Y_1_12_1 >= -1
 YS25X1P1: - X_1 + Y_1_13_1 <= 0
 YS25X13P1: - X_13 + Y_1_13_1 <= 0
 Y1_13: - X_1 - X_13 + Y_1_13_1 >= -1
 YS26X1P1: - X_1 + Y_1_14_1 <= 0
 YS26X14P1: - X_14 + Y_1_14_1 <= 0
 Y1_14: - X_1 - X_14 + Y_1_14_1 >= -1
 YS27X2P1: - X_2 + Y_2_3_1 <= 0
 YS27X3P1: - X_3 + Y_2_3_1 <= 0
 Y2_3: - X_2 - X_3 + Y_2_3_1 >= -1
 YS28X2P1: - X_2 + Y_2_4_1 <= 0
 YS28X4P1: - X_4 + Y_2_4_1 <= 0
 Y2_4: - X_2 - X_4 + Y_2_4_1 >= -1
 YS29X2P1: - X_2 + Y_2_5_1 <= 0
 YS29X5P1: - X_5 + Y_2_5_1 <= 0
 Y2_5: - X_2 - X_5 + Y_2_5_1 >= -1
 YS30X2P1: - X_2 + Y_2_6_1 <= 0
 YS30X6P1: - X_6 + Y_2_6_1 <= 0
 Y2_6: - X_2 - X_6 + Y_2_6_1 >= -1
 YS31X2P1: - X_2 + Y_2_7_1 <= 0
 YS31X7P1: - X_7 + Y_2_7_1 <= 0
 Y2_7: - X_2 - X_7 + Y_2_7_1 >= -1
 YS32X2P1: - X_2 + Y_2_8_1 <= 0
 YS32X8P1: - X_8 + Y_2_8_1 <= 0
 Y2_8: - X_2 - X_8 + Y_2_8_1 >= -1
 YS33X2P1: - X_2 + Y_2_9_1 <= 0
 YS33X9P1: - X_9 + Y_2_9_1 <= 0
 Y2_9: - X_2 - X_9 + Y_2_9_1 >= -1
 YS34X2P1: - X_2 + Y_2_10_1 <= 0
 YS34X10P1: - X_10 + Y_2_10_1 <= 0
 Y2_10: - X_2 - X_10 + Y_2_10_1 >= -1
 YS35X2P1: - X_2 + Y_2_11_1 <= 0
 YS35X11P1: - X_11 + Y_2_11_1 <= 0
 Y2_11: - X_2 - X_11 + Y_2_11_1 >= -1
 YS36X2P1: - X_2 + Y_2_12_1 <= 0
 YS36X12P1: - X_12 + Y_2_12_1 <= 0
 Y2_12: - X_2 - X_12 + Y_2_12_1 >= -1
 YS37X2P1: - X_2 + Y_2_13_1 <= 0
 YS37X13P1: - X_13 + Y_2_13_1 <= 0
 Y2_13: - X_2 - X_13 + Y_2_13_1 >= -1
 YS38X2P1: - X_2 + Y_2_14_1 <= 0
 YS38X14P1: - X_14 + Y_2_14_1 <= 0
 Y2_14: - X_2 - X_14 + Y_2_14_1 >= -1
 YS39X3P1: - X_3 + Y_3_4_1 <= 0
 YS39X4P1: - X_4 + Y_3_4_1 <= 0
 Y3_4: - X_3 - X_4 + Y_3_4_1 >= -1
 YS40X3P1: - X_3 + Y_3_5_1 <= 0
 YS40X5P1: - X_5 + Y_3_5_1 <= 0
 Y3_5: - X_3 - X_5 + Y_3_5_1 >= -1
 YS41X3P1: - X_3 + Y_3_6_1 <= 0
 YS41X6P1: - X_6 + Y_3_6_1 <= 0
 Y3_6: - X_3 - X_6 + Y_3_6_1 >= -1
 YS42X3P1: - X_3 + Y_3_7_1 <= 0
 YS42X7P1: - X_7 + Y_3_7_1 <= 0
 Y3_7: - X_3 - X_7 + Y_3_7_1 >= -1
 YS43X3P1: - X_3 + Y_3_8_1 <= 0
 YS43X8P1: - X_8 + Y_3_8_1 <= 0
 Y3_8: - X_3 - X_8 + Y_3_8_1 >= -1
 YS44X3P1: - X_3 + Y_3_9_1 <= 0
 YS44X9P1: - X_9 + Y_3_9_1 <= 0
 Y3_9: - X_3 - X_9 + Y_3_9_1 >= -1
 YS45X3P1: - X_3 + Y_3_10_1 <= 0
 YS45X10P1: - X_10 + Y_3_10_1 <= 0
 Y3_10: - X_3 - X_10 + Y_3_10_1 >= -1
 YS46X3P1: - X_3 + Y_3_11_1 <= 0
 YS46X11P1: - X_11 + Y_3_11_1 <= 0
 Y3_11: - X_3 - X_11 + Y_3_11_1 >= -1
 YS47X3P1: - X_3 + Y_3_12_1 <= 0
 YS47X12P1: - X_12 + Y_3_12_1 <= 0
 Y3_12: - X_3 - X_12 + Y_3_12_1 >= -1
 YS48X3P1: - X_3 + Y_3_13_1 <= 0
 YS48X13P1: - X_13 + Y_3_13_1 <= 0
 Y3_13: - X_3 - X_13 + Y_3_13_1 >= -1
 YS49X3P1: - X_3 + Y_3_14_1 <= 0
 YS49X14P1: - X_14 + Y_3_14_1 <= 0
 Y3_14: - X_3 - X_14 + Y_3_14_1 >= -1
 YS50X4P1: - X_4 + Y_4_5_1 <= 0
 YS50X5P1: - X_5 + Y_4_5_1 <= 0
 Y4_5: - X_4 - X_5 + Y_4_5_1 >= -1
 YS51X4P1: - X_4 + Y_4_6_1 <= 0
 YS51X6P1: - X_6 + Y_4_6_1 <= 0
 Y4_6: - X_4 - X_6 + Y_4_6_1 >= -1
 YS52X4P1: - X_4 + Y_4_7_1 <= 0
 YS52X7P1: - X_7 + Y_4_7_1 <= 0
 Y4_7: - X_4 - X_7 + Y_4_7_1 >= -1
 YS53X4P1: - X_4 + Y_4_8_1 <= 0
 YS53X8P1: - X_8 + Y_4_8_1 <= 0
 Y4_8: - X_4 - X_8 + Y_4_8_1 >= -1
 YS54X4P1: - X_4 + Y_4_9_1 <= 0
 YS54X9P1: - X_9 + Y_4_9_1 <= 0
 Y4_9: - X_4 - X_9 + Y_4_9_1 >= -1
 YS55X4P1: - X_4 + Y_4_10_1 <= 0
 YS55X10P1: - X_10 + Y_4_10_1 <= 0
 Y4_10: - X_4 - X_10 + Y_4_10_1 >= -1
 YS56X4P1: - X_4 + Y_4_11_1 <= 0
 YS56X11P1: - X_11 + Y_4_11_1 <= 0
 Y4_11: - X_4 - X_11 + Y_4_11_1 >= -1
 YS57X4P1: - X_4 + Y_4_12_1 <= 0
 YS57X12P1: - X_12 + Y_4_12_1 <= 0
 Y4_12: - X_4 - X_12 + Y_4_12_1 >= -1
 YS58X4P1: - X_4 + Y_4_13_1 <= 0
 YS58X13P1: - X_13 + Y_4_13_1 <= 0
 Y4_13: - X_4 - X_13 + Y_4_13_1 >= -1
 YS59X4P1: - X_4 + Y_4_14_1 <= 0
 YS59X14P1: - X_14 + Y_4_14_1 <= 0
 Y4_14: - X_4 - X_14 + Y_4_14_1 >= -1
 YS60X5P1: - X_5 + Y_5_6_1 <= 0
 YS60X6P1: - X_6 + Y_5_6_1 <= 0
 Y5_6: - X_5 - X_6 + Y_5_6_1 >= -1
 YS61X5P1: - X_5 + Y_5_7_1 <= 0
 YS61X7P1: - X_7 + Y_5_7_1 <= 0
 Y5_7: - X_5 - X_7 + Y_5_7_1 >= -1
 YS62X5P1: - X_5 + Y_5_8_1 <= 0
 YS62X8P1: - X_8 + Y_5_8_1 <= 0
 Y5_8: - X_5 - X_8 + Y_5_8_1 >= -1
 YS63X5P1: - X_5 + Y_5_9_1 <= 0
 YS63X9P1: - X_9 + Y_5_9_1 <= 0
 Y5_9: - X_5 - X_9 + Y_5_9_1 >= -1
 YS64X5P1: - X_5 + Y_5_10_1 <= 0
 YS64X10P1: - X_10 + Y_5_10_1 <= 0
 Y5_10: - X_5 - X_10 + Y_5_10_1 >= -1
 YS65X5P1: - X_5 + Y_5_11_1 <= 0
 YS65X11P1: - X_11 + Y_5_11_1 <= 0
 Y5_11: - X_5 - X_11 + Y_5_11_1 >= -1
 YS66X5P1: - X_5 + Y_5_12_1 <= 0
 YS66X12P1: - X_12 + Y_5_12_1 <= 0
 Y5_12: - X_5 - X_12 + Y_5_12_1 >= -1
 YS67X5P1: - X_5 + Y_5_13_1 <= 0
 YS67X13P1: - X_13 + Y_5_13_1 <= 0
 Y5_13: - X_5 - X_13 + Y_5_13_1 >= -1
 YS68X5P1: - X_5 + Y_5_14_1 <= 0
 YS68X14P1: - X_14 + Y_5_14_1 <= 0
 Y5_14: - X_5 - X_14 + Y_5_14_1 >= -1
 YS69X6P1: - X_6 + Y_6_7_1 <= 0
 YS69X7P1: - X_7 + Y_6_7_1 <= 0
 Y6_7: - X_6 - X_7 + Y_6_7_1 >= -1
 YS70X6P1: - X_6 + Y_6_8_1 <= 0
 YS70X8P1: - X_8 + Y_6_8_1 <= 0
 Y6_8: - X_6 - X_8 + Y_6_8_1 >= -1
 YS71X6P1: - X_6 + Y_6_9_1 <= 0
 YS71X9P1: - X_9 + Y_6_9_1 <= 0
 Y6_9: - X_6 - X_9 + Y_6_9_1 >= -1
 YS72X6P1: - X_6 + Y_6_10_1 <= 0
 YS72X10P1: - X_10 + Y_6_10_1 <= 0
 Y6_10: - X_6 - X_10 + Y_6_10_1 >= -1
 YS73X6P1: - X_6 + Y_6_11_1 <= 0
 YS73X11P1: - X_11 + Y_6_11_1 <= 0
 Y6_11: - X_6 - X_11 + Y_6_11_1 >= -1
 YS74X6P1: - X_6 + Y_6_12_1 <= 0
 YS74X12P1: - X_12 + Y_6_12_1 <= 0
 Y6_12: - X_6 - X_12 + Y_6_12_1 >= -1
 YS75X6P1: - X_6 + Y_6_13_1 <= 0
 YS75X13P1: - X_13 + Y_6_13_1 <= 0
 Y6_13: - X_6 - X_13 + Y_6_13_1 >= -1
 YS76X6P1: - X_6 + Y_6_14_1 <= 0
 YS76X14P1: - X_14 + Y_6_14_1 <= 0
 Y6_14: - X_6 - X_14 + Y_6_14_1 >= -1
 YS77X7P1: - X_7 + Y_7_8_1 <= 0
 YS77X8P1: - X_8 + Y_7_8_1 <= 0
 Y7_8: - X_7 - X_8 + Y_7_8_1 >= -1
 YS78X7P1: - X_7 + Y_7_9_1 <= 0
 YS78X9P1: - X_9 + Y_7_9_1 <= 0
 Y7_9: - X_7 - X_9 + Y_7_9_1 >= -1
 YS79X7P1: - X_7 + Y_7_10_1 <= 0
 YS79X10P1: - X_10 + Y_7_10_1 <= 0
 Y7_10: - X_7 - X_10 + Y_7_10_1 >= -1
 YS80X7P1: - X_7 + Y_7_11_1 <= 0
 YS80X11P1: - X_11 + Y_7_11_1 <= 0
 Y7_11: - X_7 - X_11 + Y_7_11_1 >= -1
 YS81X7P1: - X_7 + Y_7_12_1 <= 0
 YS81X12P1: - X_12 + Y_7_12_1 <= 0
 Y7_12: - X_7 - X_12 + Y_7_12_1 >= -1
 YS82X7P1: - X_7 + Y_7_13_1 <= 0
 YS82X13P1: - X_13 + Y_7_13_1 <= 0
 Y7_13: - X_7 - X_13 + Y_7_13_1 >= -1
 YS83X7P1: - X_7 + Y_7_14_1 <= 0
 YS83X14P1: - X_14 + Y_7_14_1 <= 0
 Y7_14: - X_7 - X_14 + Y_7_14_1 >= -1
 YS84X8P1: - X_8 + Y_8_9_1 <= 0
 YS84X9P1: - X_9 + Y_8_9_1 <= 0
 Y8_9: - X_8 - X_9 + Y_8_9_1 >= -1
 YS85X8P1: - X_8 + Y_8_10_1 <= 0
 YS85X10P1: - X_10 + Y_8_10_1 <= 0
 Y8_10: - X_8 - X_10 + Y_8_10_1 >= -1
 YS86X8P1: - X_8 + Y_8_11_1 <= 0
 YS86X11P1: - X_11 + Y_8_11_1 <= 0
 Y8_11: - X_8 - X_11 + Y_8_11_1 >= -1
 YS87X8P1: - X_8 + Y_8_12_1 <= 0
 YS87X12P1: - X_12 + Y_8_12_1 <= 0
 Y8_12: - X_8 - X_12 + Y_8_12_1 >= -1
 YS88X8P1: - X_8 + Y_8_13_1 <= 0
 YS88X13P1: - X_13 + Y_8_13_1 <= 0
 Y8_13: - X_8 - X_13 + Y_8_13_1 >= -1
 YS89X8P1: - X_8 + Y_8_14_1 <= 0
 YS89X14P1: - X_14 + Y_8_14_1 <= 0
 Y8_14: - X_8 - X_14 + Y_8_14_1 >= -1
 YS90X9P1: - X_9 + Y_9_10_1 <= 0
 YS90X10P1: - X_10 + Y_9_10_1 <= 0
 Y9_10: - X_9 - X_10 + Y_9_10_1 >= -1
 YS91X9P1: - X_9 + Y_9_11_1 <= 0
 YS91X11P1: - X_11 + Y_9_11_1 <= 0
 Y9_11: - X_9 - X_11 + Y_9_11_1 >= -1
 YS92X9P1: - X_9 + Y_9_12_1 <= 0
 YS92X12P1: - X_12 + Y_9_12_1 <= 0
 Y9_12: - X_9 - X_12 + Y_9_12_1 >= -1
 YS93X9P1: - X_9 + Y_9_13_1 <= 0
 YS93X13P1: - X_13 + Y_9_13_1 <= 0
 Y9_13: - X_9 - X_13 + Y_9_13_1 >= -1
 YS94X9P1: - X_9 + Y_9_14_1 <= 0
 YS94X14P1: - X_14 + Y_9_14_1 <= 0
 Y9_14: - X_9 - X_14 + Y_9_14_1 >= -1
 YS95X10P1: - X_10 + Y_10_11_1 <= 0
 YS95X11P1: - X_11 + Y_10_11_1 <= 0
 Y10_11: - X_10 - X_11 + Y_10_11_1 >= -1
 YS96X10P1: - X_10 + Y_10_12_1 <= 0
 YS96X12P1: - X_12 + Y_10_12_1 <= 0
 Y10_12: - X_10 - X_12 + Y_10_12_1 >= -1
 YS97X10P1: - X_10 + Y_10_13_1 <= 0
 YS97X13P1: - X_13 + Y_10_13_1 <= 0
 Y10_13: - X_10 - X_13 + Y_10_13_1 >= -1
 YS98X10P1: - X_10 + Y_10_14_1 <= 0
 YS98X14P1: - X_14 + Y_10_14_1 <= 0
 Y10_14: - X_10 - X_14 + Y_10_14_1 >= -1
 YS99X11P1: - X_11 + Y_11_12_1 <= 0
 YS99X12P1: - X_12 + Y_11_12_1 <= 0
 Y11_12: - X_11 - X_12 + Y_11_12_1 >= -1
 YS100X11P1: - X_11 + Y_11_13_1 <= 0
 YS100X13P1: - X_13 + Y_11_13_1 <= 0
 Y11_13: - X_11 - X_13 + Y_11_13_1 >= -1
 YS101X11P1: - X_11 + Y_11_14_1 <= 0
 YS101X14P1: - X_14 + Y_11_14_1 <= 0
 Y11_14: - X_11 - X_14 + Y_11_14_1 >= -1
 YS102X12P1: - X_12 + Y_12_13_1 <= 0
 YS102X13P1: - X_13 + Y_12_13_1 <= 0
 Y12_13: - X_12 - X_13 + Y_12_13_1 >= -1
 YS103X12P1: - X_12 + Y_12_14_1 <= 0
 YS103X14P1: - X_14 + Y_12_14_1 <= 0
 Y12_14: - X_12 - X_14 + Y_12_14_1 >= -1
 YS104X13P1: - X_13 + Y_13_14_1 <= 0
 YS104X14P1: - X_14 + Y_13_14_1 <= 0
 Y13_14: - X_13 - X_14 + Y_13_14_1 >= -1
Bounds
 X_0 <= 1
 X_0 <= 1
 X_1 <= 1
 X_1 <= 1
 X_2 <= 1
 X_2 <= 1
 X_3 <= 1
 X_3 <= 1
 X_4 <= 1
 X_4 <= 1
 X_5 <= 1
 X_5 <= 1
 X_6 <= 1
 X_6 <= 1
 X_7 <= 1
 X_7 <= 1
 X_8 <= 1
 X_8 <= 1
 X_9 <= 1
 X_9 <= 1
 X_10 <= 1
 X_10 <= 1
 X_11 <= 1
 X_11 <= 1
 X_12 <= 1
 X_12 <= 1
 X_13 <= 1
 X_13 <= 1
 X_14 <= 1
 X_14 <= 1
Binaries
 Y_0_1_0 Y_0_2_0 Y_0_3_0 Y_0_4_0 Y_0_5_0 Y_0_6_0 Y_0_7_0 Y_0_8_0 Y_0_9_0
 Y_0_10_0 Y_0_11_0 Y_0_12_0 Y_0_13_0 Y_0_14_0 Y_1_2_0 Y_1_3_0 Y_1_4_0
 Y_1_5_0 Y_1_6_0 Y_1_7_0 Y_1_8_0 Y_1_9_0 Y_1_10_0 Y_1_11_0 Y_1_12_0
 Y_1_13_0 Y_1_14_0 Y_2_3_0 Y_2_4_0 Y_2_5_0 Y_2_6_0 Y_2_7_0 Y_2_8_0 Y_2_9_0
 Y_2_10_0 Y_2_11_0 Y_2_12_0 Y_2_13_0 Y_2_14_0 Y_3_4_0 Y_3_5_0 Y_3_6_0
 Y_3_7_0 Y_3_8_0 Y_3_9_0 Y_3_10_0 Y_3_11_0 Y_3_12_0 Y_3_13_0 Y_3_14_0
 Y_4_5_0 Y_4_6_0 Y_4_7_0 Y_4_8_0 Y_4_9_0 Y_4_10_0 Y_4_11_0 Y_4_12_0
 Y_4_13_0 Y_4_14_0 Y_5_6_0 Y_5_7_0 Y_5_8_0 Y_5_9_0 Y_5_10_0 Y_5_11_0
 Y_5_12_0 Y_5_13_0 Y_5_14_0 Y_6_7_0 Y_6_8_0 Y_6_9_0 Y_6_10_0 Y_6_11_0
 Y_6_12_0 Y_6_13_0 Y_6_14_0 Y_7_8_0 Y_7_9_0 Y_7_10_0 Y_7_11_0 Y_7_12_0
 Y_7_13_0 Y_7_14_0 Y_8_9_0 Y_8_10_0 Y_8_11_0 Y_8_12_0 Y_8_13_0 Y_8_14_0
 Y_9_10_0 Y_9_11_0 Y_9_12_0 Y_9_13_0 Y_9_14_0 Y_10_11_0 Y_10_12_0 Y_10_13_0
 Y_10_14_0 Y_11_12_0 Y_11_13_0 Y_11_14_0 Y_12_13_0 Y_12_14_0 Y_13_14_0
 Y_0_1_1 Y_0_2_1 Y_0_3_1 Y_0_4_1 Y_0_5_1 Y_0_6_1 Y_0_7_1 Y_0_8_1 Y_0_9_1
 Y_0_10_1 Y_0_11_1 Y_0_12_1 Y_0_13_1 Y_0_14_1 Y_1_2_1 Y_1_3_1 Y_1_4_1
 Y_1_5_1 Y_1_6_1 Y_1_7_1 Y_1_8_1 Y_1_9_1 Y_1_10_1 Y_1_11_1 Y_1_12_1
 Y_1_13_1 Y_1_14_1 Y_2_3_1 Y_2_4_1 Y_2_5_1 Y_2_6_1 Y_2_7_1 Y_2_8_1 Y_2_9_1
 Y_2_10_1 Y_2_11_1 Y_2_12_1 Y_2_13_1 Y_2_14_1 Y_3_4_1 Y_3_5_1 Y_3_6_1
 Y_3_7_1 Y_3_8_1 Y_3_9_1 Y_3_10_1 Y_3_11_1 Y_3_12_1 Y_3_13_1 Y_3_14_1
 Y_4_5_1 Y_4_6_1 Y_4_7_1 Y_4_8_1 Y_4_9_1 Y_4_10_1 Y_4_11_1 Y_4_12_1
 Y_4_13_1 Y_4_14_1 Y_5_6_1 Y_5_7_1 Y_5_8_1 Y_5_9_1 Y_5_10_1 Y_5_11_1
 Y_5_12_1 Y_5_13_1 Y_5_14_1 Y_6_7_1 Y_6_8_1 Y_6_9_1 Y_6_10_1 Y_6_11_1
 Y_6_12_1 Y_6_13_1 Y_6_14_1 Y_7_8_1 Y_7_9_1 Y_7_10_1 Y_7_11_1 Y_7_12_1
 Y_7_13_1 Y_7_14_1 Y_8_9_1 Y_8_10_1 Y_8_11_1 Y_8_12_1 Y_8_13_1 Y_8_14_1
 Y_9_10_1 Y_9_11_1 Y_9_12_1 Y_9_13_1 Y_9_14_1 Y_10_11_1 Y_10_12_1 Y_10_13_1
 Y_10_14_1 Y_11_12_1 Y_11_13_1 Y_11_14_1 Y_12_13_1 Y_12_14_1 Y_13_14_1
End
